Maximize
  - 3.6174786139654 edge_0_1_0_0 - 2.2048748885103 edge_0_3_0_0
   - 2.339055849286 edge_0_4_0_0 - 0.48416 edge_0_5_0_0
   - 1.9645680908126 edge_0_7_0_0 - 0.8996334916140001 edge_0_8_0_0
   - 3.6072897835626 edge_0_10_0_0 - 1.2605309812446 edge_0_15_0_0
   - 3.5570740075682 edge_0_17_0_0 - 0.7686163450518001 edge_0_20_0_0
   - 1.125749662275 edge_0_21_0_0 + 0.2947819196384834 edge_1_2_0_0
   - 0.1328595171667781 edge_1_3_0_0 - 0.4117217820373784 edge_1_4_0_0
   - 0.39354467927614 edge_1_5_0_0 + 0.2930783727959085 edge_1_11_0_0
   + 1.262647950823 edge_1_22_0_0 + 0.116398515811037 edge_2_1_0_0
   + 0.2832819971676329 edge_3_1_0_0 + 1.758798550539491 edge_3_2_0_0
   + 4.420184165351126 edge_3_4_0_0 + 1.007699334918 edge_3_5_0_0
   + 0.5498391960673509 edge_3_6_0_0 + 0.9126199139140403 edge_3_7_0_0
   + 0.3732695969315269 edge_3_8_0_0 - 0.0629701544753096 edge_3_9_0_0
   + 0.3218774904951112 edge_3_10_0_0 + 0.6072890641807431 edge_3_11_0_0
   + 0.5052064093531481 edge_3_12_0_0 - 0.4552955543747357 edge_3_14_0_0
   + 0.083134108762569 edge_3_15_0_0 - 0.1365064739755077 edge_3_17_0_0
   - 0.0162257444675216 edge_3_18_0_0 - 0.5460080306694487 edge_3_19_0_0
   - 0.0893596339768018 edge_3_21_0_0 + 1.114680425703345 edge_3_22_0_0
   + 0.3961264263516157 edge_4_1_0_0 + 0.6454034153187848 edge_4_2_0_0
   + 1.756907680879565 edge_4_3_0_0 + 0.09836936378632 edge_4_5_0_0
   - 0.4963266097304994 edge_4_6_0_0 - 0.2611070467815186 edge_4_7_0_0
   - 0.9447258464337813 edge_4_8_0_0 - 0.2598198129296103 edge_4_10_0_0
   + 0.1258960232447798 edge_4_11_0_0 - 0.5091589118886125 edge_4_12_0_0
   - 1.169546655474326 edge_4_17_0_0 + 1.5620903105766 edge_5_1_0_0
   + 0.42623561172918 edge_5_2_0_0 + 2.6890382252336 edge_5_3_0_0
   + 1.824403363322 edge_5_4_0_0 + 0.8891005936669301 edge_5_6_0_0
   + 3.2975694064374 edge_5_7_0_0 + 2.2434501168216 edge_5_8_0_0
   + 1.234136098503 edge_5_9_0_0 + 2.1463298712202 edge_5_10_0_0
   + 1.2604241969326 edge_5_11_0_0 + 3.1699999594455 edge_5_12_0_0
   - 0.7951317845975 edge_5_14_0_0 + 2.4086600152524 edge_5_15_0_0
   + 0.7901527647584801 edge_5_17_0_0 + 0.3276070556301 edge_5_18_0_0
   - 0.35735469389678 edge_5_19_0_0 + 0.4838007792087 edge_5_20_0_0
   + 1.0138890368045 edge_5_21_0_0 + 4.97841 edge_5_22_0_0
   - 0.31593709977366 edge_6_9_0_0 + 0.3321581987067769 edge_6_10_0_0
   - 0.0158055537180618 edge_7_1_0_0 - 0.0505115858745709 edge_7_2_0_0
   + 0.8948632483143463 edge_7_3_0_0 + 1.220368974889345 edge_7_4_0_0
   + 1.6964296946426 edge_7_5_0_0 + 3.562343849916092 edge_7_6_0_0
   + 1.574295411948818 edge_7_8_0_0 + 0.8846670842053962 edge_7_9_0_0
   + 2.905489302682431 edge_7_10_0_0 + 1.047254786355305 edge_7_11_0_0
   + 1.13152907574343 edge_7_12_0_0 - 0.3268143969871479 edge_7_14_0_0
   + 1.094052543208907 edge_7_15_0_0 + 1.106633470827203 edge_7_17_0_0
   - 0.0589246408617627 edge_7_18_0_0 - 0.2223265081372008 edge_7_19_0_0
   + 0.037573829557562 edge_7_20_0_0 + 0.6287234718719418 edge_7_21_0_0
   + 2.4895095518882 edge_7_22_0_0 - 0.208043520144724 edge_8_1_0_0
   - 0.327060518601381 edge_8_3_0_0 - 0.4365214859601547 edge_8_4_0_0
   - 0.063597595874076 edge_8_5_0_0 + 0.3267898709582745 edge_8_6_0_0
   + 0.4612396567119508 edge_8_7_0_0 + 0.3553071884021984 edge_8_8_0_0
   + 2.523689211652467 edge_8_9_0_0 + 2.877676956101544 edge_8_10_0_0
   + 0.3889799414663551 edge_8_11_0_0 + 1.676726105433626 edge_8_12_0_0
   + 0.1013608797794509 edge_8_14_0_0 + 1.11051833673916 edge_8_15_0_0
   - 0.0177888648995796 edge_8_16_0_0 + 1.4490894529419 edge_8_17_0_0
   - 0.08881147655367 edge_8_18_0_0 + 0.027977611570694 edge_8_19_0_0
   + 0.2221928444207299 edge_8_20_0_0 + 0.1795095310999245 edge_8_21_0_0
   + 2.2139800006194 edge_8_22_0_0 + 0.1782449563004891 edge_9_7_0_0
   + 0.9477632842876328 edge_9_8_0_0 + 1.896964022246555 edge_9_10_0_0
   - 0.0394655548748325 edge_9_11_0_0 - 0.1966242507572802 edge_9_12_0_0
   + 0.1124735425935931 edge_9_15_0_0 - 0.7389388354580324 edge_9_17_0_0
   - 1.136358107383709 edge_10_1_0_0 - 0.2630060565126857 edge_10_2_0_0
   - 0.2890967918501715 edge_10_3_0_0 + 0.2810217976641711 edge_10_4_0_0
   + 0.3182238537462377 edge_10_6_0_0 + 0.3638519126755239 edge_10_7_0_0
   + 0.5083322706059052 edge_10_8_0_0 + 2.968884195661937 edge_10_9_0_0
   + 0.7699506474024584 edge_10_11_0_0 + 0.6366033046160194 edge_10_12_0_0
   + 0.2640019604131414 edge_10_15_0_0 - 0.3019131311474932 edge_10_17_0_0
   + 0.1445688539853182 edge_10_21_0_0 + 0.9022429458654201 edge_10_22_0_0
   - 0.1967243814983263 edge_11_12_0_0 - 1.264359596005318 edge_12_1_0_0
   - 0.4513484150116768 edge_12_8_0_0 - 0.556267172019943 edge_12_9_0_0
   - 0.9647191442990457 edge_12_10_0_0 + 0.00377627877764021 edge_12_11_0_0
   - 0.5760466098873593 edge_12_14_0_0 + 0.0569900860471855 edge_12_15_0_0
   - 0.0998163077403286 edge_12_16_0_0 - 0.6665514883683626 edge_12_17_0_0
   - 1.0279368856675 edge_14_5_0_0 - 0.2969951516419972 edge_14_12_0_0
   + 0.5380605094132507 edge_14_15_0_0 - 0.3926409150448569 edge_14_16_0_0
   - 0.491701909408873 edge_14_17_0_0 - 0.0349755755928716 edge_14_21_0_0
   + 0.1749611394384084 edge_15_1_0_0 - 0.4953417417504725 edge_15_2_0_0
   - 0.0362542318484472 edge_15_3_0_0 - 1.103287547961738 edge_15_4_0_0
   + 0.23745478631476 edge_15_5_0_0 - 0.2316417310698209 edge_15_7_0_0
   - 0.2100853002438876 edge_15_8_0_0 - 0.8748951186932843 edge_15_9_0_0
   - 0.5576661119656513 edge_15_10_0_0 + 0.443285399295021 edge_15_11_0_0
   + 0.1249466128899054 edge_15_12_0_0 + 2.318423767999271 edge_15_14_0_0
   + 0.5984412278558157 edge_15_16_0_0 + 2.553713723670774 edge_15_17_0_0
   + 0.7234747831789206 edge_15_18_0_0 + 0.5340103634518851 edge_15_19_0_0
   + 0.7297096766584186 edge_15_20_0_0 + 1.764622631901307 edge_15_21_0_0
   + 3.4221542169906 edge_15_22_0_0 - 1.300982501595615 edge_17_1_0_0
   - 0.7700807709148837 edge_17_3_0_0 - 1.036079319525081 edge_17_4_0_0
   - 0.56106499267552 edge_17_5_0_0 - 0.1286159785393799 edge_17_6_0_0
   - 0.4813793705306278 edge_17_7_0_0 - 0.0948884431942978 edge_17_8_0_0
   + 0.2000254197167085 edge_17_9_0_0 + 0.2343275495045325 edge_17_10_0_0
   + 0.0229084289108033 edge_17_11_0_0 + 0.096241522011417 edge_17_12_0_0
   + 0.4958641676650975 edge_17_14_0_0 + 0.6232381550489354 edge_17_15_0_0
   + 2.745202193869257 edge_17_16_0_0 + 1.137002971613528 edge_17_18_0_0
   + 0.3967396463450349 edge_17_19_0_0 + 0.6052018746838397 edge_17_20_0_0
   + 1.874049392823414 edge_17_21_0_0 + 2.0914722505984 edge_17_22_0_0
   - 0.92794623687598 edge_18_5_0_0 - 0.0654603083424018 edge_18_16_0_0
   + 0.3766009242425865 edge_18_17_0_0 + 1.030205584288358 edge_18_19_0_0
   + 0.5048833274165316 edge_18_20_0_0 + 1.581557174071105 edge_18_21_0_0
   + 1.119081665966574 edge_18_22_0_0 - 1.961918000092063 edge_19_2_0_0
   - 1.2870749324597 edge_19_5_0_0 - 1.494559993072453 edge_19_7_0_0
   - 0.0427133079465279 edge_19_16_0_0 + 0.0993164366054155 edge_19_17_0_0
   + 0.3720463809090045 edge_19_18_0_0 + 0.26077654563734 edge_19_20_0_0
   + 0.51044318727204 edge_19_22_0_0 + 0.2896093620134298 edge_20_7_0_0
   + 0.1497708018021101 edge_20_8_0_0 + 0.1061555489106531 edge_20_9_0_0
   + 0.2137656701715211 edge_20_11_0_0 + 0.2812490362757527 edge_20_12_0_0
   + 0.4708094014569183 edge_20_16_0_0 + 0.8133713084854918 edge_20_17_0_0
   - 0.6551767486558664 edge_20_18_0_0 + 0.4140284077388277 edge_20_19_0_0
   + 0.4532067160511535 edge_20_21_0_0 - 0.2647565091846034 edge_21_1_0_0
   - 0.3488265349287781 edge_21_3_0_0 - 0.348388808930926 edge_21_4_0_0
   + 0.005901178229646 edge_21_5_0_0 - 0.6031597838212506 edge_21_6_0_0
   + 0.2771977671537249 edge_21_7_0_0 + 0.5585620328426999 edge_21_8_0_0
   - 0.6049966316326161 edge_21_9_0_0 - 0.2647787007997959 edge_21_10_0_0
   - 0.3397579706006213 edge_21_11_0_0 - 0.1303530967481404 edge_21_12_0_0
   + 0.4465999061111861 edge_21_14_0_0 + 0.4746411347064369 edge_21_15_0_0
   - 0.343535327335789 edge_21_16_0_0 + 1.242552967112398 edge_21_17_0_0
   + 3.176237686507408 edge_21_18_0_0 + 3.094210023956585 edge_21_19_0_0
   + 3.636409561563204 edge_21_20_0_0 + 2.624737506497 edge_21_22_0_0
   + 0 pos_1_0 + 0 pos_2_0 + 0 pos_3_0 + 0 pos_4_0 + 0 pos_5_0 + 0 pos_6_0
   + 0 pos_7_0 + 0 pos_8_0 + 0 pos_9_0 + 0 pos_10_0 + 0 pos_11_0
   + 0 pos_12_0 + 0 pos_14_0 + 0 pos_15_0 + 0 pos_16_0 + 0 pos_17_0
   + 0 pos_18_0 + 0 pos_19_0 + 0 pos_20_0 + 0 pos_21_0 + 0 pos_22_0
Subject To
 one_parent_1: edge_0_1_0_0 + edge_2_1_0_0 + edge_3_1_0_0 + edge_4_1_0_0
   + edge_5_1_0_0 + edge_7_1_0_0 + edge_8_1_0_0 + edge_10_1_0_0
   + edge_12_1_0_0 + edge_15_1_0_0 + edge_17_1_0_0 + edge_21_1_0_0 = 1
 consume_one_flow_unit_1: flow_0_1_0_0 - flow_1_2_0_0 - flow_1_3_0_0
   - flow_1_4_0_0 - flow_1_5_0_0 - flow_1_11_0_0 - flow_1_22_0_0
   + flow_2_1_0_0 + flow_3_1_0_0 + flow_4_1_0_0 + flow_5_1_0_0
   + flow_7_1_0_0 + flow_8_1_0_0 + flow_10_1_0_0 + flow_12_1_0_0
   + flow_15_1_0_0 + flow_17_1_0_0 + flow_21_1_0_0 = 1
 one_parent_2: edge_1_2_0_0 + edge_3_2_0_0 + edge_4_2_0_0 + edge_5_2_0_0
   + edge_7_2_0_0 + edge_10_2_0_0 + edge_15_2_0_0 + edge_19_2_0_0 = 1
 consume_one_flow_unit_2: flow_1_2_0_0 - flow_2_1_0_0 + flow_3_2_0_0
   + flow_4_2_0_0 + flow_5_2_0_0 + flow_7_2_0_0 + flow_10_2_0_0
   + flow_15_2_0_0 + flow_19_2_0_0 = 1
 one_parent_3: edge_0_3_0_0 + edge_1_3_0_0 + edge_4_3_0_0 + edge_5_3_0_0
   + edge_7_3_0_0 + edge_8_3_0_0 + edge_10_3_0_0 + edge_15_3_0_0
   + edge_17_3_0_0 + edge_21_3_0_0 = 1
 consume_one_flow_unit_3: flow_0_3_0_0 + flow_1_3_0_0 - flow_3_1_0_0
   - flow_3_2_0_0 - flow_3_4_0_0 - flow_3_5_0_0 - flow_3_6_0_0
   - flow_3_7_0_0 - flow_3_8_0_0 - flow_3_9_0_0 - flow_3_10_0_0
   - flow_3_11_0_0 - flow_3_12_0_0 - flow_3_14_0_0 - flow_3_15_0_0
   - flow_3_17_0_0 - flow_3_18_0_0 - flow_3_19_0_0 - flow_3_21_0_0
   - flow_3_22_0_0 + flow_4_3_0_0 + flow_5_3_0_0 + flow_7_3_0_0
   + flow_8_3_0_0 + flow_10_3_0_0 + flow_15_3_0_0 + flow_17_3_0_0
   + flow_21_3_0_0 = 1
 one_parent_4: edge_0_4_0_0 + edge_1_4_0_0 + edge_3_4_0_0 + edge_5_4_0_0
   + edge_7_4_0_0 + edge_8_4_0_0 + edge_10_4_0_0 + edge_15_4_0_0
   + edge_17_4_0_0 + edge_21_4_0_0 = 1
 consume_one_flow_unit_4: flow_0_4_0_0 + flow_1_4_0_0 + flow_3_4_0_0
   - flow_4_1_0_0 - flow_4_2_0_0 - flow_4_3_0_0 - flow_4_5_0_0
   - flow_4_6_0_0 - flow_4_7_0_0 - flow_4_8_0_0 - flow_4_10_0_0
   - flow_4_11_0_0 - flow_4_12_0_0 - flow_4_17_0_0 + flow_5_4_0_0
   + flow_7_4_0_0 + flow_8_4_0_0 + flow_10_4_0_0 + flow_15_4_0_0
   + flow_17_4_0_0 + flow_21_4_0_0 = 1
 one_parent_5: edge_0_5_0_0 + edge_1_5_0_0 + edge_3_5_0_0 + edge_4_5_0_0
   + edge_7_5_0_0 + edge_8_5_0_0 + edge_14_5_0_0 + edge_15_5_0_0
   + edge_17_5_0_0 + edge_18_5_0_0 + edge_19_5_0_0 + edge_21_5_0_0 = 1
 consume_one_flow_unit_5: flow_0_5_0_0 + flow_1_5_0_0 + flow_3_5_0_0
   + flow_4_5_0_0 - flow_5_1_0_0 - flow_5_2_0_0 - flow_5_3_0_0
   - flow_5_4_0_0 - flow_5_6_0_0 - flow_5_7_0_0 - flow_5_8_0_0
   - flow_5_9_0_0 - flow_5_10_0_0 - flow_5_11_0_0 - flow_5_12_0_0
   - flow_5_14_0_0 - flow_5_15_0_0 - flow_5_17_0_0 - flow_5_18_0_0
   - flow_5_19_0_0 - flow_5_20_0_0 - flow_5_21_0_0 - flow_5_22_0_0
   + flow_7_5_0_0 + flow_8_5_0_0 + flow_14_5_0_0 + flow_15_5_0_0
   + flow_17_5_0_0 + flow_18_5_0_0 + flow_19_5_0_0 + flow_21_5_0_0 = 1
 one_parent_6: edge_3_6_0_0 + edge_4_6_0_0 + edge_5_6_0_0 + edge_7_6_0_0
   + edge_8_6_0_0 + edge_10_6_0_0 + edge_17_6_0_0 + edge_21_6_0_0 = 1
 consume_one_flow_unit_6: flow_3_6_0_0 + flow_4_6_0_0 + flow_5_6_0_0
   - flow_6_9_0_0 - flow_6_10_0_0 + flow_7_6_0_0 + flow_8_6_0_0
   + flow_10_6_0_0 + flow_17_6_0_0 + flow_21_6_0_0 = 1
 one_parent_7: edge_0_7_0_0 + edge_3_7_0_0 + edge_4_7_0_0 + edge_5_7_0_0
   + edge_8_7_0_0 + edge_9_7_0_0 + edge_10_7_0_0 + edge_15_7_0_0
   + edge_17_7_0_0 + edge_19_7_0_0 + edge_20_7_0_0 + edge_21_7_0_0 = 1
 consume_one_flow_unit_7: flow_0_7_0_0 + flow_3_7_0_0 + flow_4_7_0_0
   + flow_5_7_0_0 - flow_7_1_0_0 - flow_7_2_0_0 - flow_7_3_0_0
   - flow_7_4_0_0 - flow_7_5_0_0 - flow_7_6_0_0 - flow_7_8_0_0
   - flow_7_9_0_0 - flow_7_10_0_0 - flow_7_11_0_0 - flow_7_12_0_0
   - flow_7_14_0_0 - flow_7_15_0_0 - flow_7_17_0_0 - flow_7_18_0_0
   - flow_7_19_0_0 - flow_7_20_0_0 - flow_7_21_0_0 - flow_7_22_0_0
   + flow_8_7_0_0 + flow_9_7_0_0 + flow_10_7_0_0 + flow_15_7_0_0
   + flow_17_7_0_0 + flow_19_7_0_0 + flow_20_7_0_0 + flow_21_7_0_0 = 1
 one_parent_8: edge_0_8_0_0 + edge_3_8_0_0 + edge_4_8_0_0 + edge_5_8_0_0
   + edge_7_8_0_0 + edge_8_8_0_0 + edge_9_8_0_0 + edge_10_8_0_0
   + edge_12_8_0_0 + edge_15_8_0_0 + edge_17_8_0_0 + edge_20_8_0_0
   + edge_21_8_0_0 = 1
 consume_one_flow_unit_8: flow_0_8_0_0 + flow_3_8_0_0 + flow_4_8_0_0
   + flow_5_8_0_0 + flow_7_8_0_0 - flow_8_1_0_0 - flow_8_3_0_0
   - flow_8_4_0_0 - flow_8_5_0_0 - flow_8_6_0_0 - flow_8_7_0_0
   - flow_8_9_0_0 - flow_8_10_0_0 - flow_8_11_0_0 - flow_8_12_0_0
   - flow_8_14_0_0 - flow_8_15_0_0 - flow_8_16_0_0 - flow_8_17_0_0
   - flow_8_18_0_0 - flow_8_19_0_0 - flow_8_20_0_0 - flow_8_21_0_0
   - flow_8_22_0_0 + flow_9_8_0_0 + flow_10_8_0_0 + flow_12_8_0_0
   + flow_15_8_0_0 + flow_17_8_0_0 + flow_20_8_0_0 + flow_21_8_0_0 = 1
 one_parent_9: edge_3_9_0_0 + edge_5_9_0_0 + edge_6_9_0_0 + edge_7_9_0_0
   + edge_8_9_0_0 + edge_10_9_0_0 + edge_12_9_0_0 + edge_15_9_0_0
   + edge_17_9_0_0 + edge_20_9_0_0 + edge_21_9_0_0 = 1
 consume_one_flow_unit_9: flow_3_9_0_0 + flow_5_9_0_0 + flow_6_9_0_0
   + flow_7_9_0_0 + flow_8_9_0_0 - flow_9_7_0_0 - flow_9_8_0_0
   - flow_9_10_0_0 - flow_9_11_0_0 - flow_9_12_0_0 - flow_9_15_0_0
   - flow_9_17_0_0 + flow_10_9_0_0 + flow_12_9_0_0 + flow_15_9_0_0
   + flow_17_9_0_0 + flow_20_9_0_0 + flow_21_9_0_0 = 1
 one_parent_10: edge_0_10_0_0 + edge_3_10_0_0 + edge_4_10_0_0
   + edge_5_10_0_0 + edge_6_10_0_0 + edge_7_10_0_0 + edge_8_10_0_0
   + edge_9_10_0_0 + edge_12_10_0_0 + edge_15_10_0_0 + edge_17_10_0_0
   + edge_21_10_0_0 = 1
 consume_one_flow_unit_10: flow_0_10_0_0 + flow_3_10_0_0 + flow_4_10_0_0
   + flow_5_10_0_0 + flow_6_10_0_0 + flow_7_10_0_0 + flow_8_10_0_0
   + flow_9_10_0_0 - flow_10_1_0_0 - flow_10_2_0_0 - flow_10_3_0_0
   - flow_10_4_0_0 - flow_10_6_0_0 - flow_10_7_0_0 - flow_10_8_0_0
   - flow_10_9_0_0 - flow_10_11_0_0 - flow_10_12_0_0 - flow_10_15_0_0
   - flow_10_17_0_0 - flow_10_21_0_0 - flow_10_22_0_0 + flow_12_10_0_0
   + flow_15_10_0_0 + flow_17_10_0_0 + flow_21_10_0_0 = 1
 one_parent_11: edge_1_11_0_0 + edge_3_11_0_0 + edge_4_11_0_0
   + edge_5_11_0_0 + edge_7_11_0_0 + edge_8_11_0_0 + edge_9_11_0_0
   + edge_10_11_0_0 + edge_12_11_0_0 + edge_15_11_0_0 + edge_17_11_0_0
   + edge_20_11_0_0 + edge_21_11_0_0 = 1
 consume_one_flow_unit_11: flow_1_11_0_0 + flow_3_11_0_0 + flow_4_11_0_0
   + flow_5_11_0_0 + flow_7_11_0_0 + flow_8_11_0_0 + flow_9_11_0_0
   + flow_10_11_0_0 - flow_11_12_0_0 + flow_12_11_0_0 + flow_15_11_0_0
   + flow_17_11_0_0 + flow_20_11_0_0 + flow_21_11_0_0 = 1
 one_parent_12: edge_3_12_0_0 + edge_4_12_0_0 + edge_5_12_0_0
   + edge_7_12_0_0 + edge_8_12_0_0 + edge_9_12_0_0 + edge_10_12_0_0
   + edge_11_12_0_0 + edge_14_12_0_0 + edge_15_12_0_0 + edge_17_12_0_0
   + edge_20_12_0_0 + edge_21_12_0_0 = 1
 consume_one_flow_unit_12: flow_3_12_0_0 + flow_4_12_0_0 + flow_5_12_0_0
   + flow_7_12_0_0 + flow_8_12_0_0 + flow_9_12_0_0 + flow_10_12_0_0
   + flow_11_12_0_0 - flow_12_1_0_0 - flow_12_8_0_0 - flow_12_9_0_0
   - flow_12_10_0_0 - flow_12_11_0_0 - flow_12_14_0_0 - flow_12_15_0_0
   - flow_12_16_0_0 - flow_12_17_0_0 + flow_14_12_0_0 + flow_15_12_0_0
   + flow_17_12_0_0 + flow_20_12_0_0 + flow_21_12_0_0 = 1
 one_parent_13: = 1
 consume_one_flow_unit_13: = 1
 one_parent_14: edge_3_14_0_0 + edge_5_14_0_0 + edge_7_14_0_0
   + edge_8_14_0_0 + edge_12_14_0_0 + edge_15_14_0_0 + edge_17_14_0_0
   + edge_21_14_0_0 = 1
 consume_one_flow_unit_14: flow_3_14_0_0 + flow_5_14_0_0 + flow_7_14_0_0
   + flow_8_14_0_0 + flow_12_14_0_0 - flow_14_5_0_0 - flow_14_12_0_0
   - flow_14_15_0_0 - flow_14_16_0_0 - flow_14_17_0_0 - flow_14_21_0_0
   + flow_15_14_0_0 + flow_17_14_0_0 + flow_21_14_0_0 = 1
 one_parent_15: edge_0_15_0_0 + edge_3_15_0_0 + edge_5_15_0_0
   + edge_7_15_0_0 + edge_8_15_0_0 + edge_9_15_0_0 + edge_10_15_0_0
   + edge_12_15_0_0 + edge_14_15_0_0 + edge_17_15_0_0 + edge_21_15_0_0 = 1
 consume_one_flow_unit_15: flow_0_15_0_0 + flow_3_15_0_0 + flow_5_15_0_0
   + flow_7_15_0_0 + flow_8_15_0_0 + flow_9_15_0_0 + flow_10_15_0_0
   + flow_12_15_0_0 + flow_14_15_0_0 - flow_15_1_0_0 - flow_15_2_0_0
   - flow_15_3_0_0 - flow_15_4_0_0 - flow_15_5_0_0 - flow_15_7_0_0
   - flow_15_8_0_0 - flow_15_9_0_0 - flow_15_10_0_0 - flow_15_11_0_0
   - flow_15_12_0_0 - flow_15_14_0_0 - flow_15_16_0_0 - flow_15_17_0_0
   - flow_15_18_0_0 - flow_15_19_0_0 - flow_15_20_0_0 - flow_15_21_0_0
   - flow_15_22_0_0 + flow_17_15_0_0 + flow_21_15_0_0 = 1
 one_parent_16: edge_8_16_0_0 + edge_12_16_0_0 + edge_14_16_0_0
   + edge_15_16_0_0 + edge_17_16_0_0 + edge_18_16_0_0 + edge_19_16_0_0
   + edge_20_16_0_0 + edge_21_16_0_0 = 1
 consume_one_flow_unit_16: flow_8_16_0_0 + flow_12_16_0_0 + flow_14_16_0_0
   + flow_15_16_0_0 + flow_17_16_0_0 + flow_18_16_0_0 + flow_19_16_0_0
   + flow_20_16_0_0 + flow_21_16_0_0 = 1
 one_parent_17: edge_0_17_0_0 + edge_3_17_0_0 + edge_4_17_0_0
   + edge_5_17_0_0 + edge_7_17_0_0 + edge_8_17_0_0 + edge_9_17_0_0
   + edge_10_17_0_0 + edge_12_17_0_0 + edge_14_17_0_0 + edge_15_17_0_0
   + edge_18_17_0_0 + edge_19_17_0_0 + edge_20_17_0_0 + edge_21_17_0_0 = 1
 consume_one_flow_unit_17: flow_0_17_0_0 + flow_3_17_0_0 + flow_4_17_0_0
   + flow_5_17_0_0 + flow_7_17_0_0 + flow_8_17_0_0 + flow_9_17_0_0
   + flow_10_17_0_0 + flow_12_17_0_0 + flow_14_17_0_0 + flow_15_17_0_0
   - flow_17_1_0_0 - flow_17_3_0_0 - flow_17_4_0_0 - flow_17_5_0_0
   - flow_17_6_0_0 - flow_17_7_0_0 - flow_17_8_0_0 - flow_17_9_0_0
   - flow_17_10_0_0 - flow_17_11_0_0 - flow_17_12_0_0 - flow_17_14_0_0
   - flow_17_15_0_0 - flow_17_16_0_0 - flow_17_18_0_0 - flow_17_19_0_0
   - flow_17_20_0_0 - flow_17_21_0_0 - flow_17_22_0_0 + flow_18_17_0_0
   + flow_19_17_0_0 + flow_20_17_0_0 + flow_21_17_0_0 = 1
 one_parent_18: edge_3_18_0_0 + edge_5_18_0_0 + edge_7_18_0_0
   + edge_8_18_0_0 + edge_15_18_0_0 + edge_17_18_0_0 + edge_19_18_0_0
   + edge_20_18_0_0 + edge_21_18_0_0 = 1
 consume_one_flow_unit_18: flow_3_18_0_0 + flow_5_18_0_0 + flow_7_18_0_0
   + flow_8_18_0_0 + flow_15_18_0_0 + flow_17_18_0_0 - flow_18_5_0_0
   - flow_18_16_0_0 - flow_18_17_0_0 - flow_18_19_0_0 - flow_18_20_0_0
   - flow_18_21_0_0 - flow_18_22_0_0 + flow_19_18_0_0 + flow_20_18_0_0
   + flow_21_18_0_0 = 1
 one_parent_19: edge_3_19_0_0 + edge_5_19_0_0 + edge_7_19_0_0
   + edge_8_19_0_0 + edge_15_19_0_0 + edge_17_19_0_0 + edge_18_19_0_0
   + edge_20_19_0_0 + edge_21_19_0_0 = 1
 consume_one_flow_unit_19: flow_3_19_0_0 + flow_5_19_0_0 + flow_7_19_0_0
   + flow_8_19_0_0 + flow_15_19_0_0 + flow_17_19_0_0 + flow_18_19_0_0
   - flow_19_2_0_0 - flow_19_5_0_0 - flow_19_7_0_0 - flow_19_16_0_0
   - flow_19_17_0_0 - flow_19_18_0_0 - flow_19_20_0_0 - flow_19_22_0_0
   + flow_20_19_0_0 + flow_21_19_0_0 = 1
 one_parent_20: edge_0_20_0_0 + edge_5_20_0_0 + edge_7_20_0_0
   + edge_8_20_0_0 + edge_15_20_0_0 + edge_17_20_0_0 + edge_18_20_0_0
   + edge_19_20_0_0 + edge_21_20_0_0 = 1
 consume_one_flow_unit_20: flow_0_20_0_0 + flow_5_20_0_0 + flow_7_20_0_0
   + flow_8_20_0_0 + flow_15_20_0_0 + flow_17_20_0_0 + flow_18_20_0_0
   + flow_19_20_0_0 - flow_20_7_0_0 - flow_20_8_0_0 - flow_20_9_0_0
   - flow_20_11_0_0 - flow_20_12_0_0 - flow_20_16_0_0 - flow_20_17_0_0
   - flow_20_18_0_0 - flow_20_19_0_0 - flow_20_21_0_0 + flow_21_20_0_0 = 1
 one_parent_21: edge_0_21_0_0 + edge_3_21_0_0 + edge_5_21_0_0
   + edge_7_21_0_0 + edge_8_21_0_0 + edge_10_21_0_0 + edge_14_21_0_0
   + edge_15_21_0_0 + edge_17_21_0_0 + edge_18_21_0_0 + edge_20_21_0_0 = 1
 consume_one_flow_unit_21: flow_0_21_0_0 + flow_3_21_0_0 + flow_5_21_0_0
   + flow_7_21_0_0 + flow_8_21_0_0 + flow_10_21_0_0 + flow_14_21_0_0
   + flow_15_21_0_0 + flow_17_21_0_0 + flow_18_21_0_0 + flow_20_21_0_0
   - flow_21_1_0_0 - flow_21_3_0_0 - flow_21_4_0_0 - flow_21_5_0_0
   - flow_21_6_0_0 - flow_21_7_0_0 - flow_21_8_0_0 - flow_21_9_0_0
   - flow_21_10_0_0 - flow_21_11_0_0 - flow_21_12_0_0 - flow_21_14_0_0
   - flow_21_15_0_0 - flow_21_16_0_0 - flow_21_17_0_0 - flow_21_18_0_0
   - flow_21_19_0_0 - flow_21_20_0_0 - flow_21_22_0_0 = 1
 one_parent_22: edge_1_22_0_0 + edge_3_22_0_0 + edge_5_22_0_0
   + edge_7_22_0_0 + edge_8_22_0_0 + edge_10_22_0_0 + edge_15_22_0_0
   + edge_17_22_0_0 + edge_18_22_0_0 + edge_19_22_0_0 + edge_21_22_0_0 = 1
 consume_one_flow_unit_22: flow_1_22_0_0 + flow_3_22_0_0 + flow_5_22_0_0
   + flow_7_22_0_0 + flow_8_22_0_0 + flow_10_22_0_0 + flow_15_22_0_0
   + flow_17_22_0_0 + flow_18_22_0_0 + flow_19_22_0_0 + flow_21_22_0_0 = 1
 root_flow: flow_0_1_0_0 + flow_0_3_0_0 + flow_0_4_0_0 + flow_0_5_0_0
   + flow_0_7_0_0 + flow_0_8_0_0 + flow_0_10_0_0 + flow_0_15_0_0
   + flow_0_17_0_0 + flow_0_20_0_0 + flow_0_21_0_0 = 22
 inactive_no_flow_0_1_0_0: flow_0_1_0_0 - 1000 edge_0_1_0_0 <= 0
 inactive_no_flow_0_3_0_0: flow_0_3_0_0 - 1000 edge_0_3_0_0 <= 0
 inactive_no_flow_0_4_0_0: flow_0_4_0_0 - 1000 edge_0_4_0_0 <= 0
 inactive_no_flow_0_5_0_0: flow_0_5_0_0 - 1000 edge_0_5_0_0 <= 0
 inactive_no_flow_0_7_0_0: flow_0_7_0_0 - 1000 edge_0_7_0_0 <= 0
 inactive_no_flow_0_8_0_0: flow_0_8_0_0 - 1000 edge_0_8_0_0 <= 0
 inactive_no_flow_0_10_0_0: flow_0_10_0_0 - 1000 edge_0_10_0_0 <= 0
 inactive_no_flow_0_15_0_0: flow_0_15_0_0 - 1000 edge_0_15_0_0 <= 0
 inactive_no_flow_0_17_0_0: flow_0_17_0_0 - 1000 edge_0_17_0_0 <= 0
 inactive_no_flow_0_20_0_0: flow_0_20_0_0 - 1000 edge_0_20_0_0 <= 0
 inactive_no_flow_0_21_0_0: flow_0_21_0_0 - 1000 edge_0_21_0_0 <= 0
 inactive_no_flow_1_2_0_0: flow_1_2_0_0 - 1000 edge_1_2_0_0 <= 0
 inactive_no_flow_1_3_0_0: flow_1_3_0_0 - 1000 edge_1_3_0_0 <= 0
 inactive_no_flow_1_4_0_0: flow_1_4_0_0 - 1000 edge_1_4_0_0 <= 0
 inactive_no_flow_1_5_0_0: flow_1_5_0_0 - 1000 edge_1_5_0_0 <= 0
 inactive_no_flow_1_11_0_0: flow_1_11_0_0 - 1000 edge_1_11_0_0 <= 0
 inactive_no_flow_1_22_0_0: flow_1_22_0_0 - 1000 edge_1_22_0_0 <= 0
 inactive_no_flow_2_1_0_0: flow_2_1_0_0 - 1000 edge_2_1_0_0 <= 0
 inactive_no_flow_3_1_0_0: flow_3_1_0_0 - 1000 edge_3_1_0_0 <= 0
 inactive_no_flow_3_2_0_0: flow_3_2_0_0 - 1000 edge_3_2_0_0 <= 0
 inactive_no_flow_3_4_0_0: flow_3_4_0_0 - 1000 edge_3_4_0_0 <= 0
 inactive_no_flow_3_5_0_0: flow_3_5_0_0 - 1000 edge_3_5_0_0 <= 0
 inactive_no_flow_3_6_0_0: flow_3_6_0_0 - 1000 edge_3_6_0_0 <= 0
 inactive_no_flow_3_7_0_0: flow_3_7_0_0 - 1000 edge_3_7_0_0 <= 0
 inactive_no_flow_3_8_0_0: flow_3_8_0_0 - 1000 edge_3_8_0_0 <= 0
 inactive_no_flow_3_9_0_0: flow_3_9_0_0 - 1000 edge_3_9_0_0 <= 0
 inactive_no_flow_3_10_0_0: flow_3_10_0_0 - 1000 edge_3_10_0_0 <= 0
 inactive_no_flow_3_11_0_0: flow_3_11_0_0 - 1000 edge_3_11_0_0 <= 0
 inactive_no_flow_3_12_0_0: flow_3_12_0_0 - 1000 edge_3_12_0_0 <= 0
 inactive_no_flow_3_14_0_0: flow_3_14_0_0 - 1000 edge_3_14_0_0 <= 0
 inactive_no_flow_3_15_0_0: flow_3_15_0_0 - 1000 edge_3_15_0_0 <= 0
 inactive_no_flow_3_17_0_0: flow_3_17_0_0 - 1000 edge_3_17_0_0 <= 0
 inactive_no_flow_3_18_0_0: flow_3_18_0_0 - 1000 edge_3_18_0_0 <= 0
 inactive_no_flow_3_19_0_0: flow_3_19_0_0 - 1000 edge_3_19_0_0 <= 0
 inactive_no_flow_3_21_0_0: flow_3_21_0_0 - 1000 edge_3_21_0_0 <= 0
 inactive_no_flow_3_22_0_0: flow_3_22_0_0 - 1000 edge_3_22_0_0 <= 0
 inactive_no_flow_4_1_0_0: flow_4_1_0_0 - 1000 edge_4_1_0_0 <= 0
 inactive_no_flow_4_2_0_0: flow_4_2_0_0 - 1000 edge_4_2_0_0 <= 0
 inactive_no_flow_4_3_0_0: flow_4_3_0_0 - 1000 edge_4_3_0_0 <= 0
 inactive_no_flow_4_5_0_0: flow_4_5_0_0 - 1000 edge_4_5_0_0 <= 0
 inactive_no_flow_4_6_0_0: flow_4_6_0_0 - 1000 edge_4_6_0_0 <= 0
 inactive_no_flow_4_7_0_0: flow_4_7_0_0 - 1000 edge_4_7_0_0 <= 0
 inactive_no_flow_4_8_0_0: flow_4_8_0_0 - 1000 edge_4_8_0_0 <= 0
 inactive_no_flow_4_10_0_0: flow_4_10_0_0 - 1000 edge_4_10_0_0 <= 0
 inactive_no_flow_4_11_0_0: flow_4_11_0_0 - 1000 edge_4_11_0_0 <= 0
 inactive_no_flow_4_12_0_0: flow_4_12_0_0 - 1000 edge_4_12_0_0 <= 0
 inactive_no_flow_4_17_0_0: flow_4_17_0_0 - 1000 edge_4_17_0_0 <= 0
 inactive_no_flow_5_1_0_0: flow_5_1_0_0 - 1000 edge_5_1_0_0 <= 0
 inactive_no_flow_5_2_0_0: flow_5_2_0_0 - 1000 edge_5_2_0_0 <= 0
 inactive_no_flow_5_3_0_0: flow_5_3_0_0 - 1000 edge_5_3_0_0 <= 0
 inactive_no_flow_5_4_0_0: flow_5_4_0_0 - 1000 edge_5_4_0_0 <= 0
 inactive_no_flow_5_6_0_0: flow_5_6_0_0 - 1000 edge_5_6_0_0 <= 0
 inactive_no_flow_5_7_0_0: flow_5_7_0_0 - 1000 edge_5_7_0_0 <= 0
 inactive_no_flow_5_8_0_0: flow_5_8_0_0 - 1000 edge_5_8_0_0 <= 0
 inactive_no_flow_5_9_0_0: flow_5_9_0_0 - 1000 edge_5_9_0_0 <= 0
 inactive_no_flow_5_10_0_0: flow_5_10_0_0 - 1000 edge_5_10_0_0 <= 0
 inactive_no_flow_5_11_0_0: flow_5_11_0_0 - 1000 edge_5_11_0_0 <= 0
 inactive_no_flow_5_12_0_0: flow_5_12_0_0 - 1000 edge_5_12_0_0 <= 0
 inactive_no_flow_5_14_0_0: flow_5_14_0_0 - 1000 edge_5_14_0_0 <= 0
 inactive_no_flow_5_15_0_0: flow_5_15_0_0 - 1000 edge_5_15_0_0 <= 0
 inactive_no_flow_5_17_0_0: flow_5_17_0_0 - 1000 edge_5_17_0_0 <= 0
 inactive_no_flow_5_18_0_0: flow_5_18_0_0 - 1000 edge_5_18_0_0 <= 0
 inactive_no_flow_5_19_0_0: flow_5_19_0_0 - 1000 edge_5_19_0_0 <= 0
 inactive_no_flow_5_20_0_0: flow_5_20_0_0 - 1000 edge_5_20_0_0 <= 0
 inactive_no_flow_5_21_0_0: flow_5_21_0_0 - 1000 edge_5_21_0_0 <= 0
 inactive_no_flow_5_22_0_0: flow_5_22_0_0 - 1000 edge_5_22_0_0 <= 0
 inactive_no_flow_6_9_0_0: flow_6_9_0_0 - 1000 edge_6_9_0_0 <= 0
 inactive_no_flow_6_10_0_0: flow_6_10_0_0 - 1000 edge_6_10_0_0 <= 0
 inactive_no_flow_7_1_0_0: flow_7_1_0_0 - 1000 edge_7_1_0_0 <= 0
 inactive_no_flow_7_2_0_0: flow_7_2_0_0 - 1000 edge_7_2_0_0 <= 0
 inactive_no_flow_7_3_0_0: flow_7_3_0_0 - 1000 edge_7_3_0_0 <= 0
 inactive_no_flow_7_4_0_0: flow_7_4_0_0 - 1000 edge_7_4_0_0 <= 0
 inactive_no_flow_7_5_0_0: flow_7_5_0_0 - 1000 edge_7_5_0_0 <= 0
 inactive_no_flow_7_6_0_0: flow_7_6_0_0 - 1000 edge_7_6_0_0 <= 0
 inactive_no_flow_7_8_0_0: flow_7_8_0_0 - 1000 edge_7_8_0_0 <= 0
 inactive_no_flow_7_9_0_0: flow_7_9_0_0 - 1000 edge_7_9_0_0 <= 0
 inactive_no_flow_7_10_0_0: flow_7_10_0_0 - 1000 edge_7_10_0_0 <= 0
 inactive_no_flow_7_11_0_0: flow_7_11_0_0 - 1000 edge_7_11_0_0 <= 0
 inactive_no_flow_7_12_0_0: flow_7_12_0_0 - 1000 edge_7_12_0_0 <= 0
 inactive_no_flow_7_14_0_0: flow_7_14_0_0 - 1000 edge_7_14_0_0 <= 0
 inactive_no_flow_7_15_0_0: flow_7_15_0_0 - 1000 edge_7_15_0_0 <= 0
 inactive_no_flow_7_17_0_0: flow_7_17_0_0 - 1000 edge_7_17_0_0 <= 0
 inactive_no_flow_7_18_0_0: flow_7_18_0_0 - 1000 edge_7_18_0_0 <= 0
 inactive_no_flow_7_19_0_0: flow_7_19_0_0 - 1000 edge_7_19_0_0 <= 0
 inactive_no_flow_7_20_0_0: flow_7_20_0_0 - 1000 edge_7_20_0_0 <= 0
 inactive_no_flow_7_21_0_0: flow_7_21_0_0 - 1000 edge_7_21_0_0 <= 0
 inactive_no_flow_7_22_0_0: flow_7_22_0_0 - 1000 edge_7_22_0_0 <= 0
 inactive_no_flow_8_1_0_0: flow_8_1_0_0 - 1000 edge_8_1_0_0 <= 0
 inactive_no_flow_8_3_0_0: flow_8_3_0_0 - 1000 edge_8_3_0_0 <= 0
 inactive_no_flow_8_4_0_0: flow_8_4_0_0 - 1000 edge_8_4_0_0 <= 0
 inactive_no_flow_8_5_0_0: flow_8_5_0_0 - 1000 edge_8_5_0_0 <= 0
 inactive_no_flow_8_6_0_0: flow_8_6_0_0 - 1000 edge_8_6_0_0 <= 0
 inactive_no_flow_8_7_0_0: flow_8_7_0_0 - 1000 edge_8_7_0_0 <= 0
 inactive_no_flow_8_8_0_0: flow_8_8_0_0 - 1000 edge_8_8_0_0 <= 0
 inactive_no_flow_8_9_0_0: flow_8_9_0_0 - 1000 edge_8_9_0_0 <= 0
 inactive_no_flow_8_10_0_0: flow_8_10_0_0 - 1000 edge_8_10_0_0 <= 0
 inactive_no_flow_8_11_0_0: flow_8_11_0_0 - 1000 edge_8_11_0_0 <= 0
 inactive_no_flow_8_12_0_0: flow_8_12_0_0 - 1000 edge_8_12_0_0 <= 0
 inactive_no_flow_8_14_0_0: flow_8_14_0_0 - 1000 edge_8_14_0_0 <= 0
 inactive_no_flow_8_15_0_0: flow_8_15_0_0 - 1000 edge_8_15_0_0 <= 0
 inactive_no_flow_8_16_0_0: flow_8_16_0_0 - 1000 edge_8_16_0_0 <= 0
 inactive_no_flow_8_17_0_0: flow_8_17_0_0 - 1000 edge_8_17_0_0 <= 0
 inactive_no_flow_8_18_0_0: flow_8_18_0_0 - 1000 edge_8_18_0_0 <= 0
 inactive_no_flow_8_19_0_0: flow_8_19_0_0 - 1000 edge_8_19_0_0 <= 0
 inactive_no_flow_8_20_0_0: flow_8_20_0_0 - 1000 edge_8_20_0_0 <= 0
 inactive_no_flow_8_21_0_0: flow_8_21_0_0 - 1000 edge_8_21_0_0 <= 0
 inactive_no_flow_8_22_0_0: flow_8_22_0_0 - 1000 edge_8_22_0_0 <= 0
 inactive_no_flow_9_7_0_0: flow_9_7_0_0 - 1000 edge_9_7_0_0 <= 0
 inactive_no_flow_9_8_0_0: flow_9_8_0_0 - 1000 edge_9_8_0_0 <= 0
 inactive_no_flow_9_10_0_0: flow_9_10_0_0 - 1000 edge_9_10_0_0 <= 0
 inactive_no_flow_9_11_0_0: flow_9_11_0_0 - 1000 edge_9_11_0_0 <= 0
 inactive_no_flow_9_12_0_0: flow_9_12_0_0 - 1000 edge_9_12_0_0 <= 0
 inactive_no_flow_9_15_0_0: flow_9_15_0_0 - 1000 edge_9_15_0_0 <= 0
 inactive_no_flow_9_17_0_0: flow_9_17_0_0 - 1000 edge_9_17_0_0 <= 0
 inactive_no_flow_10_1_0_0: flow_10_1_0_0 - 1000 edge_10_1_0_0 <= 0
 inactive_no_flow_10_2_0_0: flow_10_2_0_0 - 1000 edge_10_2_0_0 <= 0
 inactive_no_flow_10_3_0_0: flow_10_3_0_0 - 1000 edge_10_3_0_0 <= 0
 inactive_no_flow_10_4_0_0: flow_10_4_0_0 - 1000 edge_10_4_0_0 <= 0
 inactive_no_flow_10_6_0_0: flow_10_6_0_0 - 1000 edge_10_6_0_0 <= 0
 inactive_no_flow_10_7_0_0: flow_10_7_0_0 - 1000 edge_10_7_0_0 <= 0
 inactive_no_flow_10_8_0_0: flow_10_8_0_0 - 1000 edge_10_8_0_0 <= 0
 inactive_no_flow_10_9_0_0: flow_10_9_0_0 - 1000 edge_10_9_0_0 <= 0
 inactive_no_flow_10_11_0_0: flow_10_11_0_0 - 1000 edge_10_11_0_0 <= 0
 inactive_no_flow_10_12_0_0: flow_10_12_0_0 - 1000 edge_10_12_0_0 <= 0
 inactive_no_flow_10_15_0_0: flow_10_15_0_0 - 1000 edge_10_15_0_0 <= 0
 inactive_no_flow_10_17_0_0: flow_10_17_0_0 - 1000 edge_10_17_0_0 <= 0
 inactive_no_flow_10_21_0_0: flow_10_21_0_0 - 1000 edge_10_21_0_0 <= 0
 inactive_no_flow_10_22_0_0: flow_10_22_0_0 - 1000 edge_10_22_0_0 <= 0
 inactive_no_flow_11_12_0_0: flow_11_12_0_0 - 1000 edge_11_12_0_0 <= 0
 inactive_no_flow_12_1_0_0: flow_12_1_0_0 - 1000 edge_12_1_0_0 <= 0
 inactive_no_flow_12_8_0_0: flow_12_8_0_0 - 1000 edge_12_8_0_0 <= 0
 inactive_no_flow_12_9_0_0: flow_12_9_0_0 - 1000 edge_12_9_0_0 <= 0
 inactive_no_flow_12_10_0_0: flow_12_10_0_0 - 1000 edge_12_10_0_0 <= 0
 inactive_no_flow_12_11_0_0: flow_12_11_0_0 - 1000 edge_12_11_0_0 <= 0
 inactive_no_flow_12_14_0_0: flow_12_14_0_0 - 1000 edge_12_14_0_0 <= 0
 inactive_no_flow_12_15_0_0: flow_12_15_0_0 - 1000 edge_12_15_0_0 <= 0
 inactive_no_flow_12_16_0_0: flow_12_16_0_0 - 1000 edge_12_16_0_0 <= 0
 inactive_no_flow_12_17_0_0: flow_12_17_0_0 - 1000 edge_12_17_0_0 <= 0
 inactive_no_flow_14_5_0_0: flow_14_5_0_0 - 1000 edge_14_5_0_0 <= 0
 inactive_no_flow_14_12_0_0: flow_14_12_0_0 - 1000 edge_14_12_0_0 <= 0
 inactive_no_flow_14_15_0_0: flow_14_15_0_0 - 1000 edge_14_15_0_0 <= 0
 inactive_no_flow_14_16_0_0: flow_14_16_0_0 - 1000 edge_14_16_0_0 <= 0
 inactive_no_flow_14_17_0_0: flow_14_17_0_0 - 1000 edge_14_17_0_0 <= 0
 inactive_no_flow_14_21_0_0: flow_14_21_0_0 - 1000 edge_14_21_0_0 <= 0
 inactive_no_flow_15_1_0_0: flow_15_1_0_0 - 1000 edge_15_1_0_0 <= 0
 inactive_no_flow_15_2_0_0: flow_15_2_0_0 - 1000 edge_15_2_0_0 <= 0
 inactive_no_flow_15_3_0_0: flow_15_3_0_0 - 1000 edge_15_3_0_0 <= 0
 inactive_no_flow_15_4_0_0: flow_15_4_0_0 - 1000 edge_15_4_0_0 <= 0
 inactive_no_flow_15_5_0_0: flow_15_5_0_0 - 1000 edge_15_5_0_0 <= 0
 inactive_no_flow_15_7_0_0: flow_15_7_0_0 - 1000 edge_15_7_0_0 <= 0
 inactive_no_flow_15_8_0_0: flow_15_8_0_0 - 1000 edge_15_8_0_0 <= 0
 inactive_no_flow_15_9_0_0: flow_15_9_0_0 - 1000 edge_15_9_0_0 <= 0
 inactive_no_flow_15_10_0_0: flow_15_10_0_0 - 1000 edge_15_10_0_0 <= 0
 inactive_no_flow_15_11_0_0: flow_15_11_0_0 - 1000 edge_15_11_0_0 <= 0
 inactive_no_flow_15_12_0_0: flow_15_12_0_0 - 1000 edge_15_12_0_0 <= 0
 inactive_no_flow_15_14_0_0: flow_15_14_0_0 - 1000 edge_15_14_0_0 <= 0
 inactive_no_flow_15_16_0_0: flow_15_16_0_0 - 1000 edge_15_16_0_0 <= 0
 inactive_no_flow_15_17_0_0: flow_15_17_0_0 - 1000 edge_15_17_0_0 <= 0
 inactive_no_flow_15_18_0_0: flow_15_18_0_0 - 1000 edge_15_18_0_0 <= 0
 inactive_no_flow_15_19_0_0: flow_15_19_0_0 - 1000 edge_15_19_0_0 <= 0
 inactive_no_flow_15_20_0_0: flow_15_20_0_0 - 1000 edge_15_20_0_0 <= 0
 inactive_no_flow_15_21_0_0: flow_15_21_0_0 - 1000 edge_15_21_0_0 <= 0
 inactive_no_flow_15_22_0_0: flow_15_22_0_0 - 1000 edge_15_22_0_0 <= 0
 inactive_no_flow_17_1_0_0: flow_17_1_0_0 - 1000 edge_17_1_0_0 <= 0
 inactive_no_flow_17_3_0_0: flow_17_3_0_0 - 1000 edge_17_3_0_0 <= 0
 inactive_no_flow_17_4_0_0: flow_17_4_0_0 - 1000 edge_17_4_0_0 <= 0
 inactive_no_flow_17_5_0_0: flow_17_5_0_0 - 1000 edge_17_5_0_0 <= 0
 inactive_no_flow_17_6_0_0: flow_17_6_0_0 - 1000 edge_17_6_0_0 <= 0
 inactive_no_flow_17_7_0_0: flow_17_7_0_0 - 1000 edge_17_7_0_0 <= 0
 inactive_no_flow_17_8_0_0: flow_17_8_0_0 - 1000 edge_17_8_0_0 <= 0
 inactive_no_flow_17_9_0_0: flow_17_9_0_0 - 1000 edge_17_9_0_0 <= 0
 inactive_no_flow_17_10_0_0: flow_17_10_0_0 - 1000 edge_17_10_0_0 <= 0
 inactive_no_flow_17_11_0_0: flow_17_11_0_0 - 1000 edge_17_11_0_0 <= 0
 inactive_no_flow_17_12_0_0: flow_17_12_0_0 - 1000 edge_17_12_0_0 <= 0
 inactive_no_flow_17_14_0_0: flow_17_14_0_0 - 1000 edge_17_14_0_0 <= 0
 inactive_no_flow_17_15_0_0: flow_17_15_0_0 - 1000 edge_17_15_0_0 <= 0
 inactive_no_flow_17_16_0_0: flow_17_16_0_0 - 1000 edge_17_16_0_0 <= 0
 inactive_no_flow_17_18_0_0: flow_17_18_0_0 - 1000 edge_17_18_0_0 <= 0
 inactive_no_flow_17_19_0_0: flow_17_19_0_0 - 1000 edge_17_19_0_0 <= 0
 inactive_no_flow_17_20_0_0: flow_17_20_0_0 - 1000 edge_17_20_0_0 <= 0
 inactive_no_flow_17_21_0_0: flow_17_21_0_0 - 1000 edge_17_21_0_0 <= 0
 inactive_no_flow_17_22_0_0: flow_17_22_0_0 - 1000 edge_17_22_0_0 <= 0
 inactive_no_flow_18_5_0_0: flow_18_5_0_0 - 1000 edge_18_5_0_0 <= 0
 inactive_no_flow_18_16_0_0: flow_18_16_0_0 - 1000 edge_18_16_0_0 <= 0
 inactive_no_flow_18_17_0_0: flow_18_17_0_0 - 1000 edge_18_17_0_0 <= 0
 inactive_no_flow_18_19_0_0: flow_18_19_0_0 - 1000 edge_18_19_0_0 <= 0
 inactive_no_flow_18_20_0_0: flow_18_20_0_0 - 1000 edge_18_20_0_0 <= 0
 inactive_no_flow_18_21_0_0: flow_18_21_0_0 - 1000 edge_18_21_0_0 <= 0
 inactive_no_flow_18_22_0_0: flow_18_22_0_0 - 1000 edge_18_22_0_0 <= 0
 inactive_no_flow_19_2_0_0: flow_19_2_0_0 - 1000 edge_19_2_0_0 <= 0
 inactive_no_flow_19_5_0_0: flow_19_5_0_0 - 1000 edge_19_5_0_0 <= 0
 inactive_no_flow_19_7_0_0: flow_19_7_0_0 - 1000 edge_19_7_0_0 <= 0
 inactive_no_flow_19_16_0_0: flow_19_16_0_0 - 1000 edge_19_16_0_0 <= 0
 inactive_no_flow_19_17_0_0: flow_19_17_0_0 - 1000 edge_19_17_0_0 <= 0
 inactive_no_flow_19_18_0_0: flow_19_18_0_0 - 1000 edge_19_18_0_0 <= 0
 inactive_no_flow_19_20_0_0: flow_19_20_0_0 - 1000 edge_19_20_0_0 <= 0
 inactive_no_flow_19_22_0_0: flow_19_22_0_0 - 1000 edge_19_22_0_0 <= 0
 inactive_no_flow_20_7_0_0: flow_20_7_0_0 - 1000 edge_20_7_0_0 <= 0
 inactive_no_flow_20_8_0_0: flow_20_8_0_0 - 1000 edge_20_8_0_0 <= 0
 inactive_no_flow_20_9_0_0: flow_20_9_0_0 - 1000 edge_20_9_0_0 <= 0
 inactive_no_flow_20_11_0_0: flow_20_11_0_0 - 1000 edge_20_11_0_0 <= 0
 inactive_no_flow_20_12_0_0: flow_20_12_0_0 - 1000 edge_20_12_0_0 <= 0
 inactive_no_flow_20_16_0_0: flow_20_16_0_0 - 1000 edge_20_16_0_0 <= 0
 inactive_no_flow_20_17_0_0: flow_20_17_0_0 - 1000 edge_20_17_0_0 <= 0
 inactive_no_flow_20_18_0_0: flow_20_18_0_0 - 1000 edge_20_18_0_0 <= 0
 inactive_no_flow_20_19_0_0: flow_20_19_0_0 - 1000 edge_20_19_0_0 <= 0
 inactive_no_flow_20_21_0_0: flow_20_21_0_0 - 1000 edge_20_21_0_0 <= 0
 inactive_no_flow_21_1_0_0: flow_21_1_0_0 - 1000 edge_21_1_0_0 <= 0
 inactive_no_flow_21_3_0_0: flow_21_3_0_0 - 1000 edge_21_3_0_0 <= 0
 inactive_no_flow_21_4_0_0: flow_21_4_0_0 - 1000 edge_21_4_0_0 <= 0
 inactive_no_flow_21_5_0_0: flow_21_5_0_0 - 1000 edge_21_5_0_0 <= 0
 inactive_no_flow_21_6_0_0: flow_21_6_0_0 - 1000 edge_21_6_0_0 <= 0
 inactive_no_flow_21_7_0_0: flow_21_7_0_0 - 1000 edge_21_7_0_0 <= 0
 inactive_no_flow_21_8_0_0: flow_21_8_0_0 - 1000 edge_21_8_0_0 <= 0
 inactive_no_flow_21_9_0_0: flow_21_9_0_0 - 1000 edge_21_9_0_0 <= 0
 inactive_no_flow_21_10_0_0: flow_21_10_0_0 - 1000 edge_21_10_0_0 <= 0
 inactive_no_flow_21_11_0_0: flow_21_11_0_0 - 1000 edge_21_11_0_0 <= 0
 inactive_no_flow_21_12_0_0: flow_21_12_0_0 - 1000 edge_21_12_0_0 <= 0
 inactive_no_flow_21_14_0_0: flow_21_14_0_0 - 1000 edge_21_14_0_0 <= 0
 inactive_no_flow_21_15_0_0: flow_21_15_0_0 - 1000 edge_21_15_0_0 <= 0
 inactive_no_flow_21_16_0_0: flow_21_16_0_0 - 1000 edge_21_16_0_0 <= 0
 inactive_no_flow_21_17_0_0: flow_21_17_0_0 - 1000 edge_21_17_0_0 <= 0
 inactive_no_flow_21_18_0_0: flow_21_18_0_0 - 1000 edge_21_18_0_0 <= 0
 inactive_no_flow_21_19_0_0: flow_21_19_0_0 - 1000 edge_21_19_0_0 <= 0
 inactive_no_flow_21_20_0_0: flow_21_20_0_0 - 1000 edge_21_20_0_0 <= 0
 inactive_no_flow_21_22_0_0: flow_21_22_0_0 - 1000 edge_21_22_0_0 <= 0
Bounds
Binaries
 edge_0_1_0_0 edge_0_3_0_0 edge_0_4_0_0 edge_0_5_0_0 edge_0_7_0_0
 edge_0_8_0_0 edge_0_10_0_0 edge_0_15_0_0 edge_0_17_0_0 edge_0_20_0_0
 edge_0_21_0_0 edge_1_2_0_0 edge_1_3_0_0 edge_1_4_0_0 edge_1_5_0_0
 edge_1_11_0_0 edge_1_22_0_0 edge_2_1_0_0 edge_3_1_0_0 edge_3_2_0_0
 edge_3_4_0_0 edge_3_5_0_0 edge_3_6_0_0 edge_3_7_0_0 edge_3_8_0_0
 edge_3_9_0_0 edge_3_10_0_0 edge_3_11_0_0 edge_3_12_0_0 edge_3_14_0_0
 edge_3_15_0_0 edge_3_17_0_0 edge_3_18_0_0 edge_3_19_0_0 edge_3_21_0_0
 edge_3_22_0_0 edge_4_1_0_0 edge_4_2_0_0 edge_4_3_0_0 edge_4_5_0_0
 edge_4_6_0_0 edge_4_7_0_0 edge_4_8_0_0 edge_4_10_0_0 edge_4_11_0_0
 edge_4_12_0_0 edge_4_17_0_0 edge_5_1_0_0 edge_5_2_0_0 edge_5_3_0_0
 edge_5_4_0_0 edge_5_6_0_0 edge_5_7_0_0 edge_5_8_0_0 edge_5_9_0_0
 edge_5_10_0_0 edge_5_11_0_0 edge_5_12_0_0 edge_5_14_0_0 edge_5_15_0_0
 edge_5_17_0_0 edge_5_18_0_0 edge_5_19_0_0 edge_5_20_0_0 edge_5_21_0_0
 edge_5_22_0_0 edge_6_9_0_0 edge_6_10_0_0 edge_7_1_0_0 edge_7_2_0_0
 edge_7_3_0_0 edge_7_4_0_0 edge_7_5_0_0 edge_7_6_0_0 edge_7_8_0_0
 edge_7_9_0_0 edge_7_10_0_0 edge_7_11_0_0 edge_7_12_0_0 edge_7_14_0_0
 edge_7_15_0_0 edge_7_17_0_0 edge_7_18_0_0 edge_7_19_0_0 edge_7_20_0_0
 edge_7_21_0_0 edge_7_22_0_0 edge_8_1_0_0 edge_8_3_0_0 edge_8_4_0_0
 edge_8_5_0_0 edge_8_6_0_0 edge_8_7_0_0 edge_8_8_0_0 edge_8_9_0_0
 edge_8_10_0_0 edge_8_11_0_0 edge_8_12_0_0 edge_8_14_0_0 edge_8_15_0_0
 edge_8_16_0_0 edge_8_17_0_0 edge_8_18_0_0 edge_8_19_0_0 edge_8_20_0_0
 edge_8_21_0_0 edge_8_22_0_0 edge_9_7_0_0 edge_9_8_0_0 edge_9_10_0_0
 edge_9_11_0_0 edge_9_12_0_0 edge_9_15_0_0 edge_9_17_0_0 edge_10_1_0_0
 edge_10_2_0_0 edge_10_3_0_0 edge_10_4_0_0 edge_10_6_0_0 edge_10_7_0_0
 edge_10_8_0_0 edge_10_9_0_0 edge_10_11_0_0 edge_10_12_0_0 edge_10_15_0_0
 edge_10_17_0_0 edge_10_21_0_0 edge_10_22_0_0 edge_11_12_0_0 edge_12_1_0_0
 edge_12_8_0_0 edge_12_9_0_0 edge_12_10_0_0 edge_12_11_0_0 edge_12_14_0_0
 edge_12_15_0_0 edge_12_16_0_0 edge_12_17_0_0 edge_14_5_0_0 edge_14_12_0_0
 edge_14_15_0_0 edge_14_16_0_0 edge_14_17_0_0 edge_14_21_0_0 edge_15_1_0_0
 edge_15_2_0_0 edge_15_3_0_0 edge_15_4_0_0 edge_15_5_0_0 edge_15_7_0_0
 edge_15_8_0_0 edge_15_9_0_0 edge_15_10_0_0 edge_15_11_0_0 edge_15_12_0_0
 edge_15_14_0_0 edge_15_16_0_0 edge_15_17_0_0 edge_15_18_0_0 edge_15_19_0_0
 edge_15_20_0_0 edge_15_21_0_0 edge_15_22_0_0 edge_17_1_0_0 edge_17_3_0_0
 edge_17_4_0_0 edge_17_5_0_0 edge_17_6_0_0 edge_17_7_0_0 edge_17_8_0_0
 edge_17_9_0_0 edge_17_10_0_0 edge_17_11_0_0 edge_17_12_0_0 edge_17_14_0_0
 edge_17_15_0_0 edge_17_16_0_0 edge_17_18_0_0 edge_17_19_0_0 edge_17_20_0_0
 edge_17_21_0_0 edge_17_22_0_0 edge_18_5_0_0 edge_18_16_0_0 edge_18_17_0_0
 edge_18_19_0_0 edge_18_20_0_0 edge_18_21_0_0 edge_18_22_0_0 edge_19_2_0_0
 edge_19_5_0_0 edge_19_7_0_0 edge_19_16_0_0 edge_19_17_0_0 edge_19_18_0_0
 edge_19_20_0_0 edge_19_22_0_0 edge_20_7_0_0 edge_20_8_0_0 edge_20_9_0_0
 edge_20_11_0_0 edge_20_12_0_0 edge_20_16_0_0 edge_20_17_0_0 edge_20_18_0_0
 edge_20_19_0_0 edge_20_21_0_0 edge_21_1_0_0 edge_21_3_0_0 edge_21_4_0_0
 edge_21_5_0_0 edge_21_6_0_0 edge_21_7_0_0 edge_21_8_0_0 edge_21_9_0_0
 edge_21_10_0_0 edge_21_11_0_0 edge_21_12_0_0 edge_21_14_0_0 edge_21_15_0_0
 edge_21_16_0_0 edge_21_17_0_0 edge_21_18_0_0 edge_21_19_0_0 edge_21_20_0_0
 edge_21_22_0_0 pos_1_0 pos_2_0 pos_3_0 pos_4_0 pos_5_0 pos_6_0 pos_7_0
 pos_8_0 pos_9_0 pos_10_0 pos_11_0 pos_12_0 pos_14_0 pos_15_0 pos_16_0
 pos_17_0 pos_18_0 pos_19_0 pos_20_0 pos_21_0 pos_22_0
End
